NAME: ulysses22.tsp
TYPE: TSP
COMMENT: Odyssey of Ulysses (Groetschel/Padberg)
DIMENSION: 31
EDGE_WEIGHT_TYPE: GEO
DISPLAY_DATA_TYPE: COORD_DISPLAY
NODE_COORD_SECTION
 1 38.24 20.42
 2 39.57 26.15
 3 40.56 25.32
 4 36.26 23.12
 5 33.48 10.54
 6 37.56 12.19
 7 38.42 13.11
 8 37.52 20.44
 9 41.23 9.10
 10 41.17 13.05
 11 36.08 5.21
 12 38.47 15.13
 13 38.15 15.35
 14 37.51 15.17
 15 35.49 14.32
 16 39.36 19.56
 17 38.09 24.36
 18 36.09 23.00
 19 40.44 13.57
 20 40.33 14.15
 21 40.37 14.23
 22 37.57 22.56
 1 64.62 39.88
2 94.1 98.56
3 86.555 70.644
4 64.31 31.85
5 48.06 37.25
6 20.45 32.4
7 35 34.15
8 94.08 19.7
9 30.076 54.492
10 31.93 77.99
EOF

